npieces = 10;	
nplayers = 50;	
duration = [5, 1, 2, 5, 1, 8, 1, 7, 3, 3];
rehearsal = [[1, 0, 1, 0, 0, 1, 0, 1, 1, 1], [0, 1, 1, 1, 1, 1, 1, 1, 1, 1], [0, 1, 1, 0, 0, 0, 1, 1, 1, 1], [0, 1, 1, 1, 0, 1, 1, 0, 1, 0], [1, 0, 0, 0, 1, 1, 1, 0, 1, 1], [1, 1, 1, 1, 0, 1, 1, 1, 1, 0], [0, 1, 0, 0, 0, 1, 1, 1, 0, 0], [1, 1, 1, 0, 1, 0, 1, 1, 1, 0], [1, 1, 1, 1, 1, 0, 1, 1, 0, 1], [1, 0, 0, 0, 0, 1, 0, 0, 1, 0], [0, 0, 1, 0, 0, 1, 0, 0, 1, 1], [1, 0, 0, 0, 0, 1, 1, 1, 1, 1], [1, 1, 1, 1, 1, 1, 1, 1, 1, 1], [1, 0, 1, 1, 1, 0, 1, 1, 1, 1], [0, 1, 0, 1, 1, 1, 0, 1, 1, 1], [1, 0, 1, 1, 0, 1, 0, 1, 1, 0], [1, 1, 1, 1, 0, 1, 1, 1, 0, 0], [1, 1, 1, 1, 0, 1, 1, 1, 1, 1], [1, 1, 0, 0, 1, 1, 1, 0, 0, 0], [1, 1, 1, 1, 1, 1, 1, 1, 1, 0], [1, 0, 1, 1, 1, 1, 0, 0, 1, 1], [0, 0, 0, 1, 1, 0, 0, 1, 1, 1], [0, 0, 0, 0, 0, 0, 1, 1, 1, 0], [1, 0, 0, 0, 1, 0, 1, 1, 0, 1], [0, 1, 0, 0, 1, 1, 1, 0, 0, 0], [0, 1, 0, 0, 1, 1, 1, 1, 0, 1], [0, 1, 1, 1, 1, 1, 1, 1, 0, 1], [1, 0, 1, 1, 0, 0, 1, 1, 1, 1], [1, 1, 1, 1, 1, 0, 0, 1, 1, 1], [1, 1, 1, 0, 1, 1, 1, 0, 0, 0], [0, 0, 1, 1, 0, 1, 1, 0, 1, 1], [1, 0, 1, 0, 0, 0, 1, 1, 1, 1], [1, 1, 1, 1, 0, 1, 1, 0, 1, 0], [1, 1, 0, 0, 1, 1, 1, 1, 1, 1], [0, 1, 0, 0, 1, 0, 1, 1, 1, 1], [1, 0, 1, 1, 1, 1, 1, 0, 0, 0], [1, 0, 0, 1, 1, 0, 1, 0, 0, 1], [0, 0, 1, 0, 1, 1, 0, 1, 1, 1], [1, 1, 0, 0, 0, 1, 1, 0, 0, 1], [0, 0, 0, 1, 1, 0, 1, 0, 0, 1], [0, 1, 1, 1, 0, 1, 0, 1, 1, 1], [1, 0, 1, 0, 0, 1, 1, 0, 1, 1], [1, 1, 1, 1, 1, 0, 0, 0, 1, 0], [0, 0, 0, 1, 1, 0, 1, 0, 1, 1], [1, 0, 0, 1, 1, 1, 1, 0, 0, 0], [1, 1, 0, 1, 1, 1, 0, 0, 0, 1], [0, 1, 1, 0, 0, 1, 1, 0, 1, 1], [1, 1, 1, 0, 0, 0, 1, 1, 1, 0], [1, 1, 0, 1, 1, 1, 0, 1, 0, 0], [1, 1, 1, 1, 0, 1, 1, 1, 1, 0]];